
  12   12
  10   10   10   10   10   10   10   10   10   10   10   10

   0   0   0   0   0   0   0   0   0   0   0   0   0   5 2 3 4 5 6 
   8   1   1   0   0   0   0   1   0   0   0   1   0   4 11 10 9 8 
   5   0   0   0   0   1   0   9   0   0   5   6   0   4 11 9 8 7 
  10   0   0   0   0   8   1   5   0   0   0   0   0   3 10 9 7 
   1   0   0   1   0   7   0   0   1   0   0   0   0   1 8 
   6   0   0   0   0   0   0   0   0   0   0   8   0   1 7 
   1   9   0   0   0   4   6   0   0   0   0   0   0   1 12
   6   0   0   0   0   0   8   6   7   1   0   0   1   1 12
  10   0   8   6   0   0   0   6   5   9   0   0   0   1 12
   9   0   0   8   5   0   0   3   7   0   0   0   0   1 12
   7   0   6   0   0   0   0   0   5   0   0   0   9   1 12
   0   0   0   0   0   0   0   0   0   0   0   0   0   0 
